0.500000 0.500000 0.750000
4
5 2 3 4 5 6 
4 7 8 9 10 
2 11 12 
2 13 14 
1 1 
1 2 
1 2 
1 2 
1 2 
1 2 
1 2 
1 2 
1 2 
1 2 
1 2 
1 2 
1 2 
1 3 
1 3 
1 3 
1 3 
1 3 
1 3 
1 3 
1 3 
1 3 
1 3 
1 3 
1 3 
1 4 
1 4 
1 4 
1 4 
1 4 
1 4 
1 4 
1 4 
1 4 
1 4 
1 4 
1 4 
1 5 
1 5 
1 5 
1 5 
1 5 
1 5 
1 5 
1 5 
1 5 
1 5 
1 5 
1 5 
1 6 
1 6 
1 6 
1 6 
1 6 
1 6 
1 6 
1 6 
1 6 
1 6 
1 6 
1 6 
1 1 
1 7 
1 7 
1 7 
1 7 
1 7 
2 7 3 
2 7 3 
1 7 
2 7 3 
2 7 3 
1 7 
2 7 3 
2 7 3 
2 7 3 
2 7 3 
1 7 
2 7 3 
2 7 3 
2 7 3 
2 7 3 
2 7 6 
2 7 3 
3 7 3 6 
2 7 3 
2 7 3 
2 7 3 
3 7 3 6 
3 7 3 6 
2 7 3 
2 7 3 
2 7 3 
3 7 3 6 
1 8 
1 8 
1 8 
1 8 
1 8 
1 8 
1 8 
1 8 
1 8 
1 8 
1 8 
1 8 
1 8 
1 8 
1 8 
1 8 
1 8 
1 8 
1 8 
1 8 
1 8 
1 8 
2 8 2 
1 8 
1 8 
1 8 
1 8 
1 8 
1 8 
1 8 
1 8 
2 8 2 
1 9 
1 9 
1 9 
2 9 5 
2 9 5 
2 9 5 
2 9 5 
2 9 5 
2 9 5 
2 9 5 
2 9 5 
2 9 5 
2 9 5 
2 9 5 
2 9 5 
2 9 5 
2 9 5 
2 9 5 
2 9 5 
2 9 5 
2 9 5 
2 9 5 
2 9 5 
2 9 5 
2 9 5 
2 9 5 
2 9 5 
2 9 5 
2 9 5 
1 9 
1 9 
2 9 5 
1 10 
1 10 
1 10 
1 10 
1 10 
1 10 
1 10 
1 10 
1 10 
1 10 
1 10 
1 10 
1 11 
3 11 9 5 
4 11 8 9 5 
4 11 8 9 5 
4 11 8 9 5 
4 11 8 9 5 
4 11 8 9 5 
4 11 8 9 5 
4 11 8 9 5 
4 11 8 9 5 
6 11 7 3 8 9 5 
4 11 8 9 5 
4 11 8 9 5 
4 11 8 9 5 
3 11 9 5 
3 11 9 5 
3 11 9 5 
1 11 
1 11 
1 11 
1 11 
6 11 7 3 8 9 5 
1 12 
1 12 
1 12 
1 12 
1 12 
1 12 
1 12 
1 12 
1 12 
1 12 
1 12 
1 12 
1 13 
2 13 4 
2 13 4 
1 13 
2 13 4 
1 13 
2 13 4 
2 13 4 
2 13 4 
2 13 4 
2 13 4 
2 13 4 
1 14 
1 14 
2 14 10 
1 14 
2 14 10 
2 14 10 
2 14 10 
2 14 10 
2 14 10 
2 14 10 
1 14 
2 14 10 
1 1 
1 1 
1 1 
1 1 
1 1 
1 1 
1 1 
1 1 
1 1 
1 1 
1 1 
1 1 
